14,0	0,0	13,4	15,4	0,0	0,0	0,0	0,0	0,0	18,3
10,4	9,0	0,0	7,6	5,5	0,0	0,0	14,7	0,0	0,0
0,0	0,0	15,7	0,0	12,6	6,7	0,0	0,0	14,1	0,0
11,4	0,0	16,4	0,0	0,0	0,0	13,2	0,0	0,0	0,0
0,0	19,1	0,0	16,5	15,5	0,0	0,0	5,9	0,0	0,0
0,0	6,0	9,7	0,0	13,0	18,4	0,0	0,0	9,6	0,0
0,0	19,1	0,0	10,5	0,0	0,0	7,8	0,0	0,0	11,5
17,5	0,0	11,7	0,0	0,0	0,0	0,0	0,0	0,0	16,1
0,0	19,0	0,0	8,8	12,5	0,0	0,0	11,3	0,0	0,0
0,0	0,0	16,3	0,0	0,0	15,4	16,5	0,0	0,0	12,8
									
2,9	4,8	4,7	4,3	4,7	4,0	3,9	4,2	3,3	4,5
